% Generated by MiniZinc 2.9.3
% Solver library: /home/void/Workspace-Research/Code/fzn-minicpp/minizinc
% Command line invocation: minizinc --solver org.minicpp.ml --compile --no-output-ozn bpp-sat.mzn dzn/Falkenauer_u120_17.dzn -D n_bins=52 -o fzn-sat/Falkenauer_u120_17.fzn 

predicate minicpp_bin_packing_load(array [int] of var int: l,array [int] of var int: bin,array [int] of int: w);
array [1..120] of int: weights = [100,100,100,99,98,95,95,94,94,93,92,92,91,91,90,90,89,89,88,88,87,86,86,86,86,86,85,85,85,84,84,83,82,80,80,80,79,79,79,79,78,77,77,77,76,74,74,73,72,72,72,72,71,70,69,69,68,68,65,64,63,63,62,62,61,61,60,60,59,58,58,56,56,56,55,55,55,54,53,53,53,53,51,51,51,51,50,49,49,48,47,47,46,45,44,44,43,43,42,42,41,40,39,38,37,37,34,31,30,30,30,30,30,29,28,27,26,26,22,22];
var 1..52: X_INTRODUCED_16_;
var 1..52: X_INTRODUCED_17_;
var 1..52: X_INTRODUCED_18_;
var 1..52: X_INTRODUCED_19_;
var 1..52: X_INTRODUCED_20_;
var 1..52: X_INTRODUCED_21_;
var 1..52: X_INTRODUCED_22_;
var 1..52: X_INTRODUCED_23_;
var 1..52: X_INTRODUCED_24_;
var 1..52: X_INTRODUCED_25_;
var 1..52: X_INTRODUCED_26_;
var 1..52: X_INTRODUCED_27_;
var 1..52: X_INTRODUCED_28_;
var 1..52: X_INTRODUCED_29_;
var 1..52: X_INTRODUCED_30_;
var 1..52: X_INTRODUCED_31_;
var 1..52: X_INTRODUCED_32_;
var 1..52: X_INTRODUCED_33_;
var 1..52: X_INTRODUCED_34_;
var 1..52: X_INTRODUCED_35_;
var 1..52: X_INTRODUCED_36_;
var 1..52: X_INTRODUCED_37_;
var 1..52: X_INTRODUCED_38_;
var 1..52: X_INTRODUCED_39_;
var 1..52: X_INTRODUCED_40_;
var 1..52: X_INTRODUCED_41_;
var 1..52: X_INTRODUCED_42_;
var 1..52: X_INTRODUCED_43_;
var 1..52: X_INTRODUCED_44_;
var 1..52: X_INTRODUCED_45_;
var 1..52: X_INTRODUCED_46_;
var 1..52: X_INTRODUCED_47_;
var 1..52: X_INTRODUCED_48_;
var 1..52: X_INTRODUCED_49_;
var 1..52: X_INTRODUCED_50_;
var 1..52: X_INTRODUCED_51_;
var 1..52: X_INTRODUCED_52_;
var 1..52: X_INTRODUCED_53_;
var 1..52: X_INTRODUCED_54_;
var 1..52: X_INTRODUCED_55_;
var 1..52: X_INTRODUCED_56_;
var 1..52: X_INTRODUCED_57_;
var 1..52: X_INTRODUCED_58_;
var 1..52: X_INTRODUCED_59_;
var 1..52: X_INTRODUCED_60_;
var 1..52: X_INTRODUCED_61_;
var 1..52: X_INTRODUCED_62_;
var 1..52: X_INTRODUCED_63_;
var 1..52: X_INTRODUCED_64_;
var 1..52: X_INTRODUCED_65_;
var 1..52: X_INTRODUCED_66_;
var 1..52: X_INTRODUCED_67_;
var 1..52: X_INTRODUCED_68_;
var 1..52: X_INTRODUCED_69_;
var 1..52: X_INTRODUCED_70_;
var 1..52: X_INTRODUCED_71_;
var 1..52: X_INTRODUCED_72_;
var 1..52: X_INTRODUCED_73_;
var 1..52: X_INTRODUCED_74_;
var 1..52: X_INTRODUCED_75_;
var 1..52: X_INTRODUCED_76_;
var 1..52: X_INTRODUCED_77_;
var 1..52: X_INTRODUCED_78_;
var 1..52: X_INTRODUCED_79_;
var 1..52: X_INTRODUCED_80_;
var 1..52: X_INTRODUCED_81_;
var 1..52: X_INTRODUCED_82_;
var 1..52: X_INTRODUCED_83_;
var 1..52: X_INTRODUCED_84_;
var 1..52: X_INTRODUCED_85_;
var 1..52: X_INTRODUCED_86_;
var 1..52: X_INTRODUCED_87_;
var 1..52: X_INTRODUCED_88_;
var 1..52: X_INTRODUCED_89_;
var 1..52: X_INTRODUCED_90_;
var 1..52: X_INTRODUCED_91_;
var 1..52: X_INTRODUCED_92_;
var 1..52: X_INTRODUCED_93_;
var 1..52: X_INTRODUCED_94_;
var 1..52: X_INTRODUCED_95_;
var 1..52: X_INTRODUCED_96_;
var 1..52: X_INTRODUCED_97_;
var 1..52: X_INTRODUCED_98_;
var 1..52: X_INTRODUCED_99_;
var 1..52: X_INTRODUCED_100_;
var 1..52: X_INTRODUCED_101_;
var 1..52: X_INTRODUCED_102_;
var 1..52: X_INTRODUCED_103_;
var 1..52: X_INTRODUCED_104_;
var 1..52: X_INTRODUCED_105_;
var 1..52: X_INTRODUCED_106_;
var 1..52: X_INTRODUCED_107_;
var 1..52: X_INTRODUCED_108_;
var 1..52: X_INTRODUCED_109_;
var 1..52: X_INTRODUCED_110_;
var 1..52: X_INTRODUCED_111_;
var 1..52: X_INTRODUCED_112_;
var 1..52: X_INTRODUCED_113_;
var 1..52: X_INTRODUCED_114_;
var 1..52: X_INTRODUCED_115_;
var 1..52: X_INTRODUCED_116_;
var 1..52: X_INTRODUCED_117_;
var 1..52: X_INTRODUCED_118_;
var 1..52: X_INTRODUCED_119_;
var 1..52: X_INTRODUCED_120_;
var 1..52: X_INTRODUCED_121_;
var 1..52: X_INTRODUCED_122_;
var 1..52: X_INTRODUCED_123_;
var 1..52: X_INTRODUCED_124_;
var 1..52: X_INTRODUCED_125_;
var 1..52: X_INTRODUCED_126_;
var 1..52: X_INTRODUCED_127_;
var 1..52: X_INTRODUCED_128_;
var 1..52: X_INTRODUCED_129_;
var 1..52: X_INTRODUCED_130_;
var 1..52: X_INTRODUCED_131_;
var 1..52: X_INTRODUCED_132_;
var 1..52: X_INTRODUCED_133_;
var 1..52: X_INTRODUCED_134_;
var 1..52: X_INTRODUCED_135_;
var 0..150: X_INTRODUCED_138_ ::var_is_introduced ;
var 0..150: X_INTRODUCED_139_ ::var_is_introduced ;
var 0..150: X_INTRODUCED_140_ ::var_is_introduced ;
var 0..150: X_INTRODUCED_141_ ::var_is_introduced ;
var 0..150: X_INTRODUCED_142_ ::var_is_introduced ;
var 0..150: X_INTRODUCED_143_ ::var_is_introduced ;
var 0..150: X_INTRODUCED_144_ ::var_is_introduced ;
var 0..150: X_INTRODUCED_145_ ::var_is_introduced ;
var 0..150: X_INTRODUCED_146_ ::var_is_introduced ;
var 0..150: X_INTRODUCED_147_ ::var_is_introduced ;
var 0..150: X_INTRODUCED_148_ ::var_is_introduced ;
var 0..150: X_INTRODUCED_149_ ::var_is_introduced ;
var 0..150: X_INTRODUCED_150_ ::var_is_introduced ;
var 0..150: X_INTRODUCED_151_ ::var_is_introduced ;
var 0..150: X_INTRODUCED_152_ ::var_is_introduced ;
var 0..150: X_INTRODUCED_153_ ::var_is_introduced ;
var 0..150: X_INTRODUCED_154_ ::var_is_introduced ;
var 0..150: X_INTRODUCED_155_ ::var_is_introduced ;
var 0..150: X_INTRODUCED_156_ ::var_is_introduced ;
var 0..150: X_INTRODUCED_157_ ::var_is_introduced ;
var 0..150: X_INTRODUCED_158_ ::var_is_introduced ;
var 0..150: X_INTRODUCED_159_ ::var_is_introduced ;
var 0..150: X_INTRODUCED_160_ ::var_is_introduced ;
var 0..150: X_INTRODUCED_161_ ::var_is_introduced ;
var 0..150: X_INTRODUCED_162_ ::var_is_introduced ;
var 0..150: X_INTRODUCED_163_ ::var_is_introduced ;
var 0..150: X_INTRODUCED_164_ ::var_is_introduced ;
var 0..150: X_INTRODUCED_165_ ::var_is_introduced ;
var 0..150: X_INTRODUCED_166_ ::var_is_introduced ;
var 0..150: X_INTRODUCED_167_ ::var_is_introduced ;
var 0..150: X_INTRODUCED_168_ ::var_is_introduced ;
var 0..150: X_INTRODUCED_169_ ::var_is_introduced ;
var 0..150: X_INTRODUCED_170_ ::var_is_introduced ;
var 0..150: X_INTRODUCED_171_ ::var_is_introduced ;
var 0..150: X_INTRODUCED_172_ ::var_is_introduced ;
var 0..150: X_INTRODUCED_173_ ::var_is_introduced ;
var 0..150: X_INTRODUCED_174_ ::var_is_introduced ;
var 0..150: X_INTRODUCED_175_ ::var_is_introduced ;
var 0..150: X_INTRODUCED_176_ ::var_is_introduced ;
var 0..150: X_INTRODUCED_177_ ::var_is_introduced ;
var 0..150: X_INTRODUCED_178_ ::var_is_introduced ;
var 0..150: X_INTRODUCED_179_ ::var_is_introduced ;
var 0..150: X_INTRODUCED_180_ ::var_is_introduced ;
var 0..150: X_INTRODUCED_181_ ::var_is_introduced ;
var 0..150: X_INTRODUCED_182_ ::var_is_introduced ;
var 0..150: X_INTRODUCED_183_ ::var_is_introduced ;
var 0..150: X_INTRODUCED_184_ ::var_is_introduced ;
var 0..150: X_INTRODUCED_185_ ::var_is_introduced ;
var 0..150: X_INTRODUCED_186_ ::var_is_introduced ;
var 0..150: X_INTRODUCED_187_ ::var_is_introduced ;
var 0..150: X_INTRODUCED_188_ ::var_is_introduced ;
var 0..150: X_INTRODUCED_189_ ::var_is_introduced ;
array [1..120] of var int: items_bin:: output_array([1..120]) = [X_INTRODUCED_16_,X_INTRODUCED_17_,X_INTRODUCED_18_,X_INTRODUCED_19_,X_INTRODUCED_20_,X_INTRODUCED_21_,X_INTRODUCED_22_,X_INTRODUCED_23_,X_INTRODUCED_24_,X_INTRODUCED_25_,X_INTRODUCED_26_,X_INTRODUCED_27_,X_INTRODUCED_28_,X_INTRODUCED_29_,X_INTRODUCED_30_,X_INTRODUCED_31_,X_INTRODUCED_32_,X_INTRODUCED_33_,X_INTRODUCED_34_,X_INTRODUCED_35_,X_INTRODUCED_36_,X_INTRODUCED_37_,X_INTRODUCED_38_,X_INTRODUCED_39_,X_INTRODUCED_40_,X_INTRODUCED_41_,X_INTRODUCED_42_,X_INTRODUCED_43_,X_INTRODUCED_44_,X_INTRODUCED_45_,X_INTRODUCED_46_,X_INTRODUCED_47_,X_INTRODUCED_48_,X_INTRODUCED_49_,X_INTRODUCED_50_,X_INTRODUCED_51_,X_INTRODUCED_52_,X_INTRODUCED_53_,X_INTRODUCED_54_,X_INTRODUCED_55_,X_INTRODUCED_56_,X_INTRODUCED_57_,X_INTRODUCED_58_,X_INTRODUCED_59_,X_INTRODUCED_60_,X_INTRODUCED_61_,X_INTRODUCED_62_,X_INTRODUCED_63_,X_INTRODUCED_64_,X_INTRODUCED_65_,X_INTRODUCED_66_,X_INTRODUCED_67_,X_INTRODUCED_68_,X_INTRODUCED_69_,X_INTRODUCED_70_,X_INTRODUCED_71_,X_INTRODUCED_72_,X_INTRODUCED_73_,X_INTRODUCED_74_,X_INTRODUCED_75_,X_INTRODUCED_76_,X_INTRODUCED_77_,X_INTRODUCED_78_,X_INTRODUCED_79_,X_INTRODUCED_80_,X_INTRODUCED_81_,X_INTRODUCED_82_,X_INTRODUCED_83_,X_INTRODUCED_84_,X_INTRODUCED_85_,X_INTRODUCED_86_,X_INTRODUCED_87_,X_INTRODUCED_88_,X_INTRODUCED_89_,X_INTRODUCED_90_,X_INTRODUCED_91_,X_INTRODUCED_92_,X_INTRODUCED_93_,X_INTRODUCED_94_,X_INTRODUCED_95_,X_INTRODUCED_96_,X_INTRODUCED_97_,X_INTRODUCED_98_,X_INTRODUCED_99_,X_INTRODUCED_100_,X_INTRODUCED_101_,X_INTRODUCED_102_,X_INTRODUCED_103_,X_INTRODUCED_104_,X_INTRODUCED_105_,X_INTRODUCED_106_,X_INTRODUCED_107_,X_INTRODUCED_108_,X_INTRODUCED_109_,X_INTRODUCED_110_,X_INTRODUCED_111_,X_INTRODUCED_112_,X_INTRODUCED_113_,X_INTRODUCED_114_,X_INTRODUCED_115_,X_INTRODUCED_116_,X_INTRODUCED_117_,X_INTRODUCED_118_,X_INTRODUCED_119_,X_INTRODUCED_120_,X_INTRODUCED_121_,X_INTRODUCED_122_,X_INTRODUCED_123_,X_INTRODUCED_124_,X_INTRODUCED_125_,X_INTRODUCED_126_,X_INTRODUCED_127_,X_INTRODUCED_128_,X_INTRODUCED_129_,X_INTRODUCED_130_,X_INTRODUCED_131_,X_INTRODUCED_132_,X_INTRODUCED_133_,X_INTRODUCED_134_,X_INTRODUCED_135_];
array [1..52] of var int: X_INTRODUCED_137_ ::var_is_introduced  = [X_INTRODUCED_138_,X_INTRODUCED_139_,X_INTRODUCED_140_,X_INTRODUCED_141_,X_INTRODUCED_142_,X_INTRODUCED_143_,X_INTRODUCED_144_,X_INTRODUCED_145_,X_INTRODUCED_146_,X_INTRODUCED_147_,X_INTRODUCED_148_,X_INTRODUCED_149_,X_INTRODUCED_150_,X_INTRODUCED_151_,X_INTRODUCED_152_,X_INTRODUCED_153_,X_INTRODUCED_154_,X_INTRODUCED_155_,X_INTRODUCED_156_,X_INTRODUCED_157_,X_INTRODUCED_158_,X_INTRODUCED_159_,X_INTRODUCED_160_,X_INTRODUCED_161_,X_INTRODUCED_162_,X_INTRODUCED_163_,X_INTRODUCED_164_,X_INTRODUCED_165_,X_INTRODUCED_166_,X_INTRODUCED_167_,X_INTRODUCED_168_,X_INTRODUCED_169_,X_INTRODUCED_170_,X_INTRODUCED_171_,X_INTRODUCED_172_,X_INTRODUCED_173_,X_INTRODUCED_174_,X_INTRODUCED_175_,X_INTRODUCED_176_,X_INTRODUCED_177_,X_INTRODUCED_178_,X_INTRODUCED_179_,X_INTRODUCED_180_,X_INTRODUCED_181_,X_INTRODUCED_182_,X_INTRODUCED_183_,X_INTRODUCED_184_,X_INTRODUCED_185_,X_INTRODUCED_186_,X_INTRODUCED_187_,X_INTRODUCED_188_,X_INTRODUCED_189_];
constraint minicpp_bin_packing_load(X_INTRODUCED_137_,items_bin,weights);
solve :: int_search(items_bin,input_order,indomain_min,complete) satisfy;
